(declare-const c_0 Real)
(declare-const c_1 Real)
(declare-const c_2 Real)
(declare-const c_3 Real)
(declare-const c_4 Real)
(declare-const c_5 Real)
(declare-const c_6 Real)
(declare-const c_7 Real)
(declare-const c_8 Real)
(declare-const c_9 Real)
(declare-const s_0 Real)
(declare-const s_1 Real)
(declare-const s_2 Real)
(declare-const s_3 Real)
(declare-const s_4 Real)
(declare-const s_5 Real)
(declare-const s_6 Real)
(declare-const s_7 Real)
(declare-const s_8 Real)
(declare-const s_9 Real)
(assert (forall ((oldx Real) (oldy Real) (x Real) (y Real) ) (=> (and (>= (+ (* 1024 1) (* 1 oldx ) ) 0) (>= (+ (* 1023 1) (* (- 1) oldx ) ) 0) (>= (+ (* 1024 1) (* 1 oldy ) ) 0) (>= (+ (* 1023 1) (* (- 1) oldy ) ) 0) (>= (+ (* 1024 1) (* 1 x ) ) 0) (>= (+ (* 1023 1) (* (- 1) x ) ) 0) (>= (+ (* 1024 1) (* 1 y ) ) 0) (>= (+ (* 1023 1) (* (- 1) y ) ) 0) ) (>= (+ (* 1 oldx s_1 ) (* 1 oldy s_2 ) (* 1 s_0 ) (* 1 s_3 x ) (* 1 s_4 y ) ) 0) )))
(assert (forall ((oldx Real) (oldy Real) (x Real) (y Real) ) (=> (and (>= (+ (* 1024 1) (* 1 oldx ) ) 0) (>= (+ (* 1023 1) (* (- 1) oldx ) ) 0) (>= (+ (* 1024 1) (* 1 oldy ) ) 0) (>= (+ (* 1023 1) (* (- 1) oldy ) ) 0) (>= (+ (* 1024 1) (* 1 x ) ) 0) (>= (+ (* 1023 1) (* (- 1) x ) ) 0) (>= (+ (* 1024 1) (* 1 y ) ) 0) (>= (+ (* 1023 1) (* (- 1) y ) ) 0) ) (>= (+ (* 1 c_0 ) (* 1 c_1 oldx ) (* 1 c_2 oldy ) (* 1 c_3 x ) (* 1 c_4 y ) ) 0) )))
(assert (forall ((oldx Real) (oldy Real) (x Real) (y Real) ) (=> (and (>= (+ (* (- 1) 1) (* 1 x ) ) 0) (>= (+ (* (- 1) 1) (* 1 y ) ) 0) (>= (+ (* 1023 1) (* (- 1) oldx ) ) 0) (>= (+ (* 2094082 1) (* (- 1) oldy ) (* 1 x ) (* (- 2045) y ) ) 0) (>= (+ (* 3069 1) (* (- 1) x ) (* (- 2) y ) ) 0) (>= (+ (* 1023 1) (* (- 1) x ) ) 0) (>= (+ (* 1024 1) (* 1 oldx ) ) 0) (>= (+ (* 2095105 1) (* 1 oldx ) (* (- 2047) y ) ) 0) (>= (+ (* 1024 1) (* 1 y ) ) 0) (>= (+ (* 1047553 1) (* 1 x ) (* (- 1023) y ) ) 0) (>= (+ (* 1024 1) (* 1 x ) ) 0) (>= (+ (* 2098174 1) (* 1 oldy ) (* (- 1) x ) (* (- 2049) y ) ) 0) (>= (+ (* 1049599 1) (* 1 oldy ) (* (- 1025) y ) ) 0) (>= (+ (* 1024 1) (* 1 oldy ) ) 0) (>= (+ (* 1 oldx s_1 ) (* 1 oldy s_2 ) (* 1 s_0 ) (* 1 s_3 x ) (* 1 s_4 y ) ) 0) ) (>= (+ (* 1 s_0 ) (* 1 s_1 x ) (* 1 s_2 y ) (* (- 1) s_3 ) (* 1 s_3 x ) (* 1 s_4 x ) ) 0) )))
(assert (forall ((oldx Real) (oldy Real) (x Real) (y Real) ) (=> (and (>= (+ (* (- 1) 1) (* 1 x ) ) 0) (>= (+ (* (- 1) 1) (* 1 y ) ) 0) (>= (+ (* 1023 1) (* (- 1) oldx ) ) 0) (>= (+ (* 2094082 1) (* (- 1) oldy ) (* 1 x ) (* (- 2045) y ) ) 0) (>= (+ (* 3069 1) (* (- 1) x ) (* (- 2) y ) ) 0) (>= (+ (* 1023 1) (* (- 1) x ) ) 0) (>= (+ (* 1024 1) (* 1 oldx ) ) 0) (>= (+ (* 2095105 1) (* 1 oldx ) (* (- 2047) y ) ) 0) (>= (+ (* 1024 1) (* 1 y ) ) 0) (>= (+ (* 1047553 1) (* 1 x ) (* (- 1023) y ) ) 0) (>= (+ (* 1024 1) (* 1 x ) ) 0) (>= (+ (* 2098174 1) (* 1 oldy ) (* (- 1) x ) (* (- 2049) y ) ) 0) (>= (+ (* 1049599 1) (* 1 oldy ) (* (- 1025) y ) ) 0) (>= (+ (* 1024 1) (* 1 oldy ) ) 0) (>= (+ (* 1 oldx s_1 ) (* 1 oldy s_2 ) (* 1 s_0 ) (* 1 s_3 x ) (* 1 s_4 y ) ) 0) ) (>= (+ (* 1 c_0 ) (* 1 c_1 x ) (* 1 c_2 y ) (* (- 1) c_3 ) (* 1 c_3 x ) (* 1 c_4 x ) ) 0) )))
(assert (forall ((oldx Real) (oldy Real) (x Real) (y Real) ) (=> (and (>= (+ (* (- 1) 1) (* 1 x ) ) 0) (>= (+ (* (- 1) 1) (* 1 y ) ) 0) (>= (+ (* 1023 1) (* (- 1) oldx ) ) 0) (>= (+ (* 2094082 1) (* (- 1) oldy ) (* 1 x ) (* (- 2045) y ) ) 0) (>= (+ (* 3069 1) (* (- 1) x ) (* (- 2) y ) ) 0) (>= (+ (* 1023 1) (* (- 1) x ) ) 0) (>= (+ (* 1024 1) (* 1 oldx ) ) 0) (>= (+ (* 2095105 1) (* 1 oldx ) (* (- 2047) y ) ) 0) (>= (+ (* 1024 1) (* 1 y ) ) 0) (>= (+ (* 1047553 1) (* 1 x ) (* (- 1023) y ) ) 0) (>= (+ (* 1024 1) (* 1 x ) ) 0) (>= (+ (* 2098174 1) (* 1 oldy ) (* (- 1) x ) (* (- 2049) y ) ) 0) (>= (+ (* 1049599 1) (* 1 oldy ) (* (- 1025) y ) ) 0) (>= (+ (* 1024 1) (* 1 oldy ) ) 0) (>= (+ (* 1 oldx s_1 ) (* 1 oldy s_2 ) (* 1 s_0 ) (* 1 s_3 x ) (* 1 s_4 y ) ) 0) ) (>= (+ (* (- 1) 1) (* 1 c_1 oldx ) (* (- 1) c_1 x ) (* 1 c_2 oldy ) (* (- 1) c_2 y ) (* 1 c_3 ) (* (- 1) c_4 x ) (* 1 c_4 y ) ) 0) )))
(assert (forall ((oldx Real) (oldy Real) (x Real) (y Real) ) (=> (and (>= (+ (* (- 1) 1) (* 1 x ) ) 0) (>= (+ (* (- 1) 1) (* 1 y ) ) 0) (>= (+ (* 1023 1) (* (- 1) oldx ) ) 0) (>= (+ (* 2094082 1) (* (- 1) oldy ) (* 1 x ) (* (- 2045) y ) ) 0) (>= (+ (* 3069 1) (* (- 1) x ) (* (- 2) y ) ) 0) (>= (+ (* 1023 1) (* (- 1) x ) ) 0) (>= (+ (* 1024 1) (* 1 oldx ) ) 0) (>= (+ (* 2095105 1) (* 1 oldx ) (* (- 2047) y ) ) 0) (>= (+ (* 1024 1) (* 1 y ) ) 0) (>= (+ (* 1047553 1) (* 1 x ) (* (- 1023) y ) ) 0) (>= (+ (* 1024 1) (* 1 x ) ) 0) (>= (+ (* 2098174 1) (* 1 oldy ) (* (- 1) x ) (* (- 2049) y ) ) 0) (>= (+ (* 1049599 1) (* 1 oldy ) (* (- 1025) y ) ) 0) (>= (+ (* 1024 1) (* 1 oldy ) ) 0) (>= (+ (* 1 oldx s_1 ) (* 1 oldy s_2 ) (* 1 s_0 ) (* 1 s_3 x ) (* 1 s_4 y ) ) 0) ) (>= (+ (* 1 s_0 ) (* 1 s_1 x ) (* 1 s_2 y ) (* (- 2) s_3 ) (* 1 s_3 y ) (* 1 s_4 ) (* 1 s_4 x ) ) 0) )))
(assert (forall ((oldx Real) (oldy Real) (x Real) (y Real) ) (=> (and (>= (+ (* (- 1) 1) (* 1 x ) ) 0) (>= (+ (* (- 1) 1) (* 1 y ) ) 0) (>= (+ (* 1023 1) (* (- 1) oldx ) ) 0) (>= (+ (* 2094082 1) (* (- 1) oldy ) (* 1 x ) (* (- 2045) y ) ) 0) (>= (+ (* 3069 1) (* (- 1) x ) (* (- 2) y ) ) 0) (>= (+ (* 1023 1) (* (- 1) x ) ) 0) (>= (+ (* 1024 1) (* 1 oldx ) ) 0) (>= (+ (* 2095105 1) (* 1 oldx ) (* (- 2047) y ) ) 0) (>= (+ (* 1024 1) (* 1 y ) ) 0) (>= (+ (* 1047553 1) (* 1 x ) (* (- 1023) y ) ) 0) (>= (+ (* 1024 1) (* 1 x ) ) 0) (>= (+ (* 2098174 1) (* 1 oldy ) (* (- 1) x ) (* (- 2049) y ) ) 0) (>= (+ (* 1049599 1) (* 1 oldy ) (* (- 1025) y ) ) 0) (>= (+ (* 1024 1) (* 1 oldy ) ) 0) (>= (+ (* 1 oldx s_1 ) (* 1 oldy s_2 ) (* 1 s_0 ) (* 1 s_3 x ) (* 1 s_4 y ) ) 0) ) (>= (+ (* 1 c_0 ) (* 1 c_1 x ) (* 1 c_2 y ) (* (- 2) c_3 ) (* 1 c_3 y ) (* 1 c_4 ) (* 1 c_4 x ) ) 0) )))
(assert (forall ((oldx Real) (oldy Real) (x Real) (y Real) ) (=> (and (>= (+ (* (- 1) 1) (* 1 x ) ) 0) (>= (+ (* (- 1) 1) (* 1 y ) ) 0) (>= (+ (* 1023 1) (* (- 1) oldx ) ) 0) (>= (+ (* 2094082 1) (* (- 1) oldy ) (* 1 x ) (* (- 2045) y ) ) 0) (>= (+ (* 3069 1) (* (- 1) x ) (* (- 2) y ) ) 0) (>= (+ (* 1023 1) (* (- 1) x ) ) 0) (>= (+ (* 1024 1) (* 1 oldx ) ) 0) (>= (+ (* 2095105 1) (* 1 oldx ) (* (- 2047) y ) ) 0) (>= (+ (* 1024 1) (* 1 y ) ) 0) (>= (+ (* 1047553 1) (* 1 x ) (* (- 1023) y ) ) 0) (>= (+ (* 1024 1) (* 1 x ) ) 0) (>= (+ (* 2098174 1) (* 1 oldy ) (* (- 1) x ) (* (- 2049) y ) ) 0) (>= (+ (* 1049599 1) (* 1 oldy ) (* (- 1025) y ) ) 0) (>= (+ (* 1024 1) (* 1 oldy ) ) 0) (>= (+ (* 1 oldx s_1 ) (* 1 oldy s_2 ) (* 1 s_0 ) (* 1 s_3 x ) (* 1 s_4 y ) ) 0) ) (>= (+ (* (- 1) 1) (* 1 c_1 oldx ) (* (- 1) c_1 x ) (* 1 c_2 oldy ) (* (- 1) c_2 y ) (* 2 c_3 ) (* 1 c_3 x ) (* (- 1) c_3 y ) (* (- 1) c_4 ) (* (- 1) c_4 x ) (* 1 c_4 y ) ) 0) )))
(assert (forall ((oldx Real) (oldy Real) (x Real) (y Real) ) (=> (and (>= (* (- 1) x ) 0) (>= (+ (* 1023 1) (* (- 1) oldx ) ) 0) (>= (+ (* 2094082 1) (* (- 1) oldy ) (* 1 x ) (* (- 2045) y ) ) 0) (>= (+ (* 3069 1) (* (- 1) x ) (* (- 2) y ) ) 0) (>= (+ (* 1023 1) (* (- 1) x ) ) 0) (>= (+ (* 1024 1) (* 1 oldx ) ) 0) (>= (+ (* 2095105 1) (* 1 oldx ) (* (- 2047) y ) ) 0) (>= (+ (* 1024 1) (* 1 y ) ) 0) (>= (+ (* 1047553 1) (* 1 x ) (* (- 1023) y ) ) 0) (>= (+ (* 1024 1) (* 1 x ) ) 0) (>= (+ (* 2098174 1) (* 1 oldy ) (* (- 1) x ) (* (- 2049) y ) ) 0) (>= (+ (* 1049599 1) (* 1 oldy ) (* (- 1025) y ) ) 0) (>= (+ (* 1024 1) (* 1 oldy ) ) 0) (>= (+ (* 1 oldx s_1 ) (* 1 oldy s_2 ) (* 1 s_0 ) (* 1 s_3 x ) (* 1 s_4 y ) ) 0) ) (>= (+ (* 1 oldx s_6 ) (* 1 oldy s_7 ) (* 1 s_5 ) (* 1 s_8 x ) (* 1 s_9 y ) ) 0) )))
(assert (forall ((oldx Real) (oldy Real) (x Real) (y Real) ) (=> (and (>= (* (- 1) x ) 0) (>= (+ (* 1023 1) (* (- 1) oldx ) ) 0) (>= (+ (* 2094082 1) (* (- 1) oldy ) (* 1 x ) (* (- 2045) y ) ) 0) (>= (+ (* 3069 1) (* (- 1) x ) (* (- 2) y ) ) 0) (>= (+ (* 1023 1) (* (- 1) x ) ) 0) (>= (+ (* 1024 1) (* 1 oldx ) ) 0) (>= (+ (* 2095105 1) (* 1 oldx ) (* (- 2047) y ) ) 0) (>= (+ (* 1024 1) (* 1 y ) ) 0) (>= (+ (* 1047553 1) (* 1 x ) (* (- 1023) y ) ) 0) (>= (+ (* 1024 1) (* 1 x ) ) 0) (>= (+ (* 2098174 1) (* 1 oldy ) (* (- 1) x ) (* (- 2049) y ) ) 0) (>= (+ (* 1049599 1) (* 1 oldy ) (* (- 1025) y ) ) 0) (>= (+ (* 1024 1) (* 1 oldy ) ) 0) (>= (+ (* 1 oldx s_1 ) (* 1 oldy s_2 ) (* 1 s_0 ) (* 1 s_3 x ) (* 1 s_4 y ) ) 0) ) (>= (+ (* 1 c_5 ) (* 1 c_6 oldx ) (* 1 c_7 oldy ) (* 1 c_8 x ) (* 1 c_9 y ) ) 0) )))
(assert (forall ((oldx Real) (oldy Real) (x Real) (y Real) ) (=> (and (>= (* (- 1) y ) 0) (>= (+ (* 1023 1) (* (- 1) oldx ) ) 0) (>= (+ (* 2094082 1) (* (- 1) oldy ) (* 1 x ) (* (- 2045) y ) ) 0) (>= (+ (* 3069 1) (* (- 1) x ) (* (- 2) y ) ) 0) (>= (+ (* 1023 1) (* (- 1) x ) ) 0) (>= (+ (* 1024 1) (* 1 oldx ) ) 0) (>= (+ (* 2095105 1) (* 1 oldx ) (* (- 2047) y ) ) 0) (>= (+ (* 1024 1) (* 1 y ) ) 0) (>= (+ (* 1047553 1) (* 1 x ) (* (- 1023) y ) ) 0) (>= (+ (* 1024 1) (* 1 x ) ) 0) (>= (+ (* 2098174 1) (* 1 oldy ) (* (- 1) x ) (* (- 2049) y ) ) 0) (>= (+ (* 1049599 1) (* 1 oldy ) (* (- 1025) y ) ) 0) (>= (+ (* 1024 1) (* 1 oldy ) ) 0) (>= (+ (* 1 oldx s_1 ) (* 1 oldy s_2 ) (* 1 s_0 ) (* 1 s_3 x ) (* 1 s_4 y ) ) 0) ) (>= (+ (* 1 oldx s_6 ) (* 1 oldy s_7 ) (* 1 s_5 ) (* 1 s_8 x ) (* 1 s_9 y ) ) 0) )))
(assert (forall ((oldx Real) (oldy Real) (x Real) (y Real) ) (=> (and (>= (* (- 1) y ) 0) (>= (+ (* 1023 1) (* (- 1) oldx ) ) 0) (>= (+ (* 2094082 1) (* (- 1) oldy ) (* 1 x ) (* (- 2045) y ) ) 0) (>= (+ (* 3069 1) (* (- 1) x ) (* (- 2) y ) ) 0) (>= (+ (* 1023 1) (* (- 1) x ) ) 0) (>= (+ (* 1024 1) (* 1 oldx ) ) 0) (>= (+ (* 2095105 1) (* 1 oldx ) (* (- 2047) y ) ) 0) (>= (+ (* 1024 1) (* 1 y ) ) 0) (>= (+ (* 1047553 1) (* 1 x ) (* (- 1023) y ) ) 0) (>= (+ (* 1024 1) (* 1 x ) ) 0) (>= (+ (* 2098174 1) (* 1 oldy ) (* (- 1) x ) (* (- 2049) y ) ) 0) (>= (+ (* 1049599 1) (* 1 oldy ) (* (- 1025) y ) ) 0) (>= (+ (* 1024 1) (* 1 oldy ) ) 0) (>= (+ (* 1 oldx s_1 ) (* 1 oldy s_2 ) (* 1 s_0 ) (* 1 s_3 x ) (* 1 s_4 y ) ) 0) ) (>= (+ (* 1 c_5 ) (* 1 c_6 oldx ) (* 1 c_7 oldy ) (* 1 c_8 x ) (* 1 c_9 y ) ) 0) )))

(check-sat)
(get-model)
